36
1 1 2
2 1 5
3 1 8
4 2 5
5 2 7
6 2 3
7 3 6
8 3 4
9 4 11
10 5 8
11 5 9
12 5 7
13 6 7
14 6 10
15 6 11
16 8 18
17 8 13
18 8 9
19 9 13
20 9 12
21 9 10
22 10 11
23 10 14
24 10 12
25 11 14
26 11 15
27 12 13
28 12 14
29 12 16
30 13 18
31 13 17
32 14 16
33 14 15
34 18 17
35 17 16
36 16 15